\ This file has been generated by DOcplex
\ ENCODING=ISO-8859-1
\Problem name: {self.PROBLEM.name} LEADER SOTA problem

Maximize
 obj: V
Subject To
 c1: V - 6 a0_0 - 55 a0_1 - 10 a0_2 <= 0
 c2: V - 55 a0_0 - 55 a0_1 - 59 a0_2 <= 0
 c3: V - 2 a0_0 - 51 a0_1 - 5.600000000000 a0_2 <= 0
 c4: a0_0 + a0_1 + a0_2 = 1

Bounds
       a0_0 <= 1
       a0_1 <= 1
       a0_2 <= 1
       V Free
End
